
Gurobi 11.0.3 (linux64) logging started Mon Aug 25 14:49:23 2025

Set parameter LogFile to value "/home/yihong/Coding/OR_SUC/SUC_epstheta_results_bigM100000_thread4/case24_ieee_rts_theta0.1_epsilon0.1_gurobi_seed40000_num_gen100_N_WDR50_load_scaling_factor1_proposed_theta_T20quadra_cost_bc1.05.txt"
Set parameter TimeLimit to value 3600
Gurobi Optimizer version 11.0.3 build v11.0.3rc0 (linux64 - "Ubuntu 20.04.6 LTS")

CPU model: AMD EPYC 7532 32-Core Processor, instruction set [SSE2|AVX|AVX2]
Thread count: 64 physical cores, 128 logical processors, using up to 4 threads

Academic license 2399124 - for non-commercial use only - registered to yi___@ed.ac.uk
Optimize a model with 47832 rows, 24851 columns and 1096182 nonzeros
Model fingerprint: 0x774ae5e1
Model has 2000 quadratic constraints
Variable types: 22851 continuous, 2000 integer (2000 binary)
Coefficient statistics:
  Matrix range     [3e-04, 2e+03]
  QMatrix range    [2e-03, 8e-03]
  QLMatrix range   [5e-01, 6e+01]
  Objective range  [1e+00, 1e+00]
  Bounds range     [1e+00, 1e+00]
  RHS range        [1e+00, 9e+03]
Presolve removed 39115 rows and 10578 columns
Presolve time: 0.36s
Presolved: 8717 rows, 14273 columns, 49406 nonzeros
Presolved model has 2000 quadratic constraint(s)
Variable types: 12273 continuous, 2000 integer (2000 binary)

Root relaxation: objective 2.495252e+04, 6811 iterations, 0.20 seconds (0.24 work units)

    Nodes    |    Current Node    |     Objective Bounds      |     Work
 Expl Unexpl |  Obj  Depth IntInf | Incumbent    BestBd   Gap | It/Node Time

     0     0 24952.5244    0    -          - 24952.5244      -     -    0s
     0     0 304766.629    0  618          - 304766.629      -     -    1s
     0     0 537195.800    0  512          - 537195.800      -     -    1s
     0     0 537234.105    0  260          - 537234.105      -     -    1s
     0     0 537401.767    0  141          - 537401.767      -     -    1s
     0     0 537421.155    0  140          - 537421.155      -     -    2s
     0     0 537422.311    0  140          - 537422.311      -     -    2s
     0     2 537422.311    0  140          - 537422.311      -     -    3s
    57    75 537430.082   14  118          - 537425.287      -  31.4    5s
H  406   327                    537432.46787 537426.903  0.00%  10.6    6s
*  406   327              78    537432.46787 537426.903  0.00%  10.6    6s

Cutting planes:
  Gomory: 79
  Implied bound: 280
  MIR: 85
  Flow cover: 256
  RLT: 192

Explored 520 nodes (24161 simplex iterations) in 7.16 seconds (7.94 work units)
Thread count was 4 (of 128 available processors)

Solution count 2: 537432 537432 

Optimal solution found (tolerance 1.00e-03)
Warning: max constraint violation (1.4988e-07) exceeds tolerance
Best objective 5.374324678693e+05, best bound 5.374272268573e+05, gap 0.0010%

Gurobi 11.0.3 (linux64) logging started Mon Aug 25 14:49:32 2025

Set parameter LogFile to value "/home/yihong/Coding/OR_SUC/SUC_epstheta_results_bigM100000_thread4/case24_ieee_rts_theta0.1_epsilon0.1_gurobi_seed40000_num_gen100_N_WDR50_load_scaling_factor1_proposed_theta_T20quadra_cost_bc1.05.txt"
Set parameter TimeLimit to value 3600
Gurobi Optimizer version 11.0.3 build v11.0.3rc0 (linux64 - "Ubuntu 20.04.6 LTS")

CPU model: AMD EPYC 7532 32-Core Processor, instruction set [SSE2|AVX|AVX2]
Thread count: 64 physical cores, 128 logical processors, using up to 4 threads

Academic license 2399124 - for non-commercial use only - registered to yi___@ed.ac.uk
Optimize a model with 47833 rows, 24852 columns and 1102383 nonzeros
Model fingerprint: 0x8ea161c1
Model has 2000 quadratic constraints
Variable types: 22852 continuous, 2000 integer (2000 binary)
Coefficient statistics:
  Matrix range     [3e-04, 2e+03]
  QMatrix range    [2e-03, 8e-03]
  QLMatrix range   [5e-01, 6e+01]
  Objective range  [1e+00, 1e+00]
  Bounds range     [1e-01, 1e+00]
  RHS range        [8e-01, 6e+05]
Presolve removed 35286 rows and 8666 columns
Presolve time: 0.43s
Presolved: 12547 rows, 16186 columns, 66634 nonzeros
Presolved model has 2000 quadratic constraint(s)
Variable types: 14184 continuous, 2002 integer (2002 binary)

Root relaxation: objective 1.011603e+01, 12966 iterations, 0.36 seconds (0.36 work units)

    Nodes    |    Current Node    |     Objective Bounds      |     Work
 Expl Unexpl |  Obj  Depth IntInf | Incumbent    BestBd   Gap | It/Node Time

     0     0   10.11603    0    3          -   10.11603      -     -    0s
     0     0    4.50313    0   35          -    4.50313      -     -    2s
     0     0    3.14291    0   40          -    3.14291      -     -    3s
     0     0    1.15382    0   34          -    1.15382      -     -    3s
     0     0    1.14600    0   23          -    1.14600      -     -    4s
     0     0    1.14572    0   23          -    1.14572      -     -    4s
     0     0    1.14214    0   20          -    1.14214      -     -    4s
     0     0    1.14209    0   20          -    1.14209      -     -    4s
     0     0    1.14189    0   20          -    1.14189      -     -    4s
     0     0    1.14188    0   20          -    1.14188      -     -    4s
     0     0    1.14188    0   19          -    1.14188      -     -    4s
     0     0    1.14187    0   19          -    1.14187      -     -    4s
H    0     0                       1.1408039    1.14187  0.09%     -    5s

Cutting planes:
  Implied bound: 50
  MIR: 8
  Flow cover: 5
  RLT: 4

Explored 1 nodes (26657 simplex iterations) in 5.54 seconds (5.96 work units)
Thread count was 4 (of 128 available processors)

Solution count 1: 1.1408 

Optimal solution found (tolerance 1.00e-03)
Best objective 1.140803900019e+00, best bound 1.141874692970e+00, gap 0.0939%
